problems/csplib-prob030/BalancedAcademicCurriculumProblem-models/compact/O0/minion/model-bacp-14-solution000001.eprime-solution
language ESSENCE' 1.0

letting curr_Function1D be
        [3, 10, 10, 3, 10, 3, 10, 10, 9, 2, 9, 2, 2, 1, 2, 8, 7, 7, 1, 7, 6, 5, 5, 5, 5, 5, 5, 1, 2, 1, 4, 4, 1, 4, 3,
         3, 3, 6, 3, 3, 2, 2, 2, 2, 8, 2, 1, 1, 1, 1;
             int(1..50)]
