problems/csplib-prob030/BalancedAcademicCurriculumProblem-models/compact/O0/minion/model-bacp-14-solution000001.solution
language Essence 1.3

letting curr be
        function(1 --> 3, 2 --> 10, 3 --> 10, 4 --> 3, 5 --> 10, 6 --> 3, 7 --> 10, 8 --> 10, 9 --> 9, 10 --> 2,
                 11 --> 9, 12 --> 2, 13 --> 2, 14 --> 1, 15 --> 2, 16 --> 8, 17 --> 7, 18 --> 7, 19 --> 1, 20 --> 7,
                 21 --> 6, 22 --> 5, 23 --> 5, 24 --> 5, 25 --> 5, 26 --> 5, 27 --> 5, 28 --> 1, 29 --> 2, 30 --> 1,
                 31 --> 4, 32 --> 4, 33 --> 1, 34 --> 4, 35 --> 3, 36 --> 3, 37 --> 3, 38 --> 6, 39 --> 3, 40 --> 3,
                 41 --> 2, 42 --> 2, 43 --> 2, 44 --> 2, 45 --> 8, 46 --> 2, 47 --> 1, 48 --> 1, 49 --> 1, 50 --> 1)
